Mo2 S4
1.0
1.598205 -2.768171 0.000000
1.598205 2.768171 0.000000
0.000000 0.000000 23.139646
Mo S Mo S
1 2 1 2
direct
0.000000 0.000000 0.067839 Mo
0.333334 0.666666 0.135683 S
0.333334 0.666666 0.000000 S
0.714285714286 0.428571428571 0.354777
1.04761971429 1.09523742857 0.422621
1.04761971429 1.09523742857 0.286938
