Mo1                                     
   1.00000000000000     
     3.1894836930207422    0.0000000000000000    0.0000000000000000
    -1.5947413466920439    2.7621750095656314    0.0000000000000000
     0.0000000000000000    0.0000000000000000   23.1434427422999995
   Mo   S 
     1     2
Direct
  0.6666669999999968  0.3333330000000032  0.4997218546659994
  0.3333330000000032  0.6666669999999968  0.4318220266177448
  0.3333330000000032  0.6666669999999968  0.5676186843882576
 
  0.00000000E+00  0.00000000E+00  0.00000000E+00
  0.00000000E+00  0.00000000E+00  0.00000000E+00
  0.00000000E+00  0.00000000E+00  0.00000000E+00
